
List of user-set options:

                                    Name   Value                used
                           compl_inf_tol = 1                     yes
                         constr_viol_tol = 1                     yes
                            dual_inf_tol = 1000                  yes
                           linear_solver = ma97                  yes
                              ma86_small = 1e-30                  no
                                  ma86_u = 0.0001                 no
                              ma97_order = best                  yes
                              ma97_small = 1e-30                 yes
                            ma97_switch1 = at_start              yes
                            ma97_switch2 = od_hd_reuse           yes
                                  ma97_u = 1e-06                 yes
                               ma97_umax = 0.5                   yes
                                max_iter = 2000                  yes
                    max_refinement_steps = 20                    yes
                    min_refinement_steps = 5                     yes
                                 mu_init = 1e-06                 yes
           mu_superlinear_decrease_power = 1.25                  yes
                   nlp_scaling_min_value = 1e-08                 yes
                        option_file_name = Preset_Case:_135_NCP.opt  yes
                             output_file = ./tmp/Preset_Case:_135_NCP.output  yes
                      print_user_options = yes                   yes
        required_infeasibility_reduction = 1                      no
                                     tol = 1e-08                 yes
                   warm_start_bound_frac = 1e-20                 yes
                   warm_start_bound_push = 1e-20                 yes
                   warm_start_init_point = yes                   yes
              warm_start_mult_bound_push = 1e-20                 yes
                warm_start_mult_init_max = 1e+40                 yes
             warm_start_slack_bound_frac = 1e-20                 yes
             warm_start_slack_bound_push = 1e-20                 yes

******************************************************************************
This program contains Ipopt, a library for large-scale nonlinear optimization.
 Ipopt is released as open source code under the Eclipse Public License (EPL).
         For more information visit http://projects.coin-or.org/Ipopt
******************************************************************************

This is Ipopt version 3.12.10, running with linear solver ma97.

Number of nonzeros in equality constraint Jacobian...:   117140
Number of nonzeros in inequality constraint Jacobian.:      213
Number of nonzeros in Lagrangian Hessian.............:    47462

Total number of variables............................:    29971
                     variables with only lower bounds:    11312
                variables with lower and upper bounds:    15132
                     variables with only upper bounds:        0
Total number of equality constraints.................:    29864
Total number of inequality constraints...............:       25
        inequality constraints with only lower bounds:        4
   inequality constraints with lower and upper bounds:        0
        inequality constraints with only upper bounds:       21

iter    objective    inf_pr   inf_du lg(mu)  ||d||  lg(rg) alpha_du alpha_pr  ls
   0 -3.4193725e-02 1.29e-01 1.00e+00  -6.0 0.00e+00    -  0.00e+00 0.00e+00   0
In iteration 0, 1 Slack too small, adjusting variable bound
   1 -3.4193725e-02 1.29e-01 3.52e+03  -6.0 4.69e+07  -4.0 2.37e-08 4.98e-17f  1
   2 -3.4253345e-02 1.29e-01 3.52e+03  -6.0 2.47e+03  -4.5 5.72e-05 4.29e-03f  1
   3 -3.4240402e-02 1.28e-01 3.52e+03  -6.0 2.28e+03  -5.0 1.68e-03 3.33e-04h  1
   4 -3.4208601e-02 1.28e-01 3.51e+03  -6.0 2.41e+03  -5.4 1.82e-03 6.06e-04h  4
   5 -3.4188617e-02 1.28e-01 3.51e+03  -6.0 2.67e+03  -5.9 1.22e-03 4.43e-04h  2
   6 -3.4019173e-02 2.01e-01 3.50e+03  -6.0 2.90e+03  -6.4 9.18e-04 9.18e-04s 15
   7 -3.4012654e-02 2.01e-01 3.50e+03  -6.0 2.43e+03  -6.0 1.96e-04 1.96e-04s 15
   8r-3.4012654e-02 2.01e-01 1.00e+03  -0.9 0.00e+00  -4.6 0.00e+00 0.00e+00R  1
   9r-3.4014157e-02 2.01e-01 1.28e+03  -0.9 7.53e+04    -  2.24e-09 1.65e-08f  1
iter    objective    inf_pr   inf_du lg(mu)  ||d||  lg(rg) alpha_du alpha_pr  ls
  10 -3.4014157e-02 2.01e-01 7.18e+06  -6.0 3.69e+02    -  7.25e-02 2.09e-07h  2
  11 -3.4089016e-02 2.00e-01 3.58e+10  -6.0 7.43e+03    -  1.65e-06 8.21e-03h  1
  12r-3.4089016e-02 2.00e-01 9.99e+02  -0.9 0.00e+00    -  0.00e+00 1.96e-07R  2
  13r-3.4091311e-02 1.99e-01 1.45e+03  -0.9 3.07e+03    -  7.58e-06 1.80e-06f  1
  14r-3.4091311e-02 1.99e-01 9.99e+02  -0.9 0.00e+00    -  0.00e+00 2.94e-07R  2
  15r-3.4092228e-02 1.99e-01 9.99e+02  -0.9 6.23e+03    -  3.71e-06 6.58e-08f  1
  16r-3.4143857e-02 1.98e-01 1.22e+03  -0.9 5.58e+03    -  1.81e-06 1.25e-05f  1
  17r-3.4174809e-02 1.96e-01 1.55e+03  -0.9 2.56e+03    -  3.32e-05 1.79e-05f  1
  18r-3.3990517e-02 1.89e-01 1.03e+03  -0.9 1.92e+03    -  5.00e-05 8.22e-05f  1
  19 -3.3991665e-02 1.88e-01 4.18e+05  -6.0 7.17e+01    -  1.80e-02 1.37e-03h  1
iter    objective    inf_pr   inf_du lg(mu)  ||d||  lg(rg) alpha_du alpha_pr  ls
  20 -3.3978667e-02 1.85e-01 4.63e+06  -6.0 2.05e+02    -  1.37e-03 1.41e-02h  1
  21r-3.3978667e-02 1.85e-01 9.99e+02  -0.9 0.00e+00    -  0.00e+00 3.00e-07R  2
  22r-3.3978611e-02 1.85e-01 3.00e+03  -0.9 1.86e+03    -  2.04e-04 1.51e-07f  1
  23 -3.3978614e-02 1.85e-01 3.85e+05  -6.0 2.24e+02    -  1.62e-02 4.23e-06h  2
  24 -3.3979682e-02 1.85e-01 3.17e+07  -6.0 8.53e+02    -  5.73e-06 4.72e-04h  1
  25 -3.3985413e-02 1.85e-01 3.17e+07  -6.0 8.59e+02    -  2.46e-03 2.39e-03h  1
  26r-3.3985413e-02 1.85e-01 9.99e+02  -0.9 0.00e+00    -  0.00e+00 1.24e-07R  2
  27r-3.3984990e-02 1.85e-01 2.94e+03  -0.9 1.35e+03    -  1.99e-04 1.34e-06f  1
  28r-3.3984990e-02 1.85e-01 9.99e+02  -0.9 0.00e+00    -  0.00e+00 2.11e-07R  2
  29r-3.3984905e-02 1.85e-01 9.99e+02  -0.9 1.88e+03    -  4.14e-05 6.89e-08f  2
iter    objective    inf_pr   inf_du lg(mu)  ||d||  lg(rg) alpha_du alpha_pr  ls
  30r-3.3984905e-02 1.85e-01 9.99e+02  -0.9 0.00e+00    -  0.00e+00 2.85e-07R  6
  31r-3.3984642e-02 1.85e-01 2.98e+03  -0.9 1.88e+03    -  2.04e-04 2.07e-07f  2
  32 -3.6323114e-02 1.24e-01 1.14e+02  -6.0 3.05e+03    -  5.68e-03 8.80e-03h  1
  33 -4.6025572e-02 1.78e+00 1.10e+02  -6.0 1.77e+03    -  2.49e-02 3.69e-02h  1
  34 -5.1965200e-02 2.35e+00 2.18e+03  -6.0 7.45e+03    -  2.48e-02 1.67e-02h  1
  35 -5.4308800e-02 2.85e+00 7.51e+02  -6.0 5.02e+03    -  1.73e-02 2.55e-02h  1
  36 -5.7738828e-02 3.55e+00 1.08e+04  -6.0 3.97e+03    -  9.78e-02 3.77e-02h  1
  37 -6.3363476e-02 4.99e+00 6.97e+03  -6.0 2.41e+03    -  7.17e-02 8.82e-02h  1
  38 -6.4904577e-02 4.88e+00 1.65e+04  -6.0 1.65e+03    -  7.51e-02 4.72e-02h  1
  39 -6.6481757e-02 4.27e+00 1.53e+04  -6.0 1.89e+03    -  5.86e-02 5.93e-02h  1
iter    objective    inf_pr   inf_du lg(mu)  ||d||  lg(rg) alpha_du alpha_pr  ls
  40 -6.7161307e-02 3.94e+00 2.17e+04  -6.0 2.02e+03    -  6.32e-02 3.56e-02h  1
  41 -6.7285766e-02 3.93e+00 4.48e+04  -6.0 3.40e+03    -  6.76e-02 4.06e-03h  1
  42 -6.7146838e-02 3.60e+00 3.91e+04  -6.0 2.96e+03    -  9.95e-03 1.48e-02h  3
  43 -6.7611491e-02 4.59e+00 6.75e+04  -6.0 3.77e+03    -  8.60e-02 5.42e-02h  1
  44 -6.7913636e-02 4.82e+00 9.90e+04  -6.0 2.93e+03    -  6.69e-02 2.22e-02h  1
  45 -6.7877850e-02 5.02e+00 1.33e+05  -6.0 1.94e+03    -  7.28e-02 1.47e-02h  4
  46 -6.7897811e-02 5.37e+00 1.87e+05  -6.0 1.95e+03    -  1.26e-01 2.13e-02h  3
  47 -6.7982076e-02 5.49e+00 2.61e+05  -6.0 2.01e+03    -  2.00e-01 1.57e-02h  4
  48 -6.9218595e-02 1.58e+01 2.12e+05  -6.0 2.25e+03    -  9.52e-02 1.36e-01h  1
  49 -7.4307326e-02 1.15e+01 1.64e+05  -6.0 4.76e+03    -  8.56e-02 1.63e-01h  1
iter    objective    inf_pr   inf_du lg(mu)  ||d||  lg(rg) alpha_du alpha_pr  ls
  50r-7.4307326e-02 1.15e+01 1.00e+03   0.8 0.00e+00    -  0.00e+00 4.78e-07R  3
  51r-7.4189733e-02 1.15e+01 1.00e+03   0.8 1.10e+07    -  2.81e-07 3.86e-07f  1
  52 -7.4189274e-02 1.15e+01 8.41e+00  -6.0 7.31e+02    -  1.59e-04 4.66e-04h  1
  53 -7.4182577e-02 1.14e+01 5.51e+01  -6.0 6.65e+02    -  5.14e-04 5.52e-03h  1
  54 -7.4181151e-02 1.14e+01 4.93e+01  -6.0 2.73e+02    -  2.57e-03 1.03e-03h  1
  55 -7.4170865e-02 1.13e+01 7.13e+01  -6.0 1.32e+02    -  2.22e-03 7.15e-03h  1
  56 -7.4167021e-02 1.13e+01 4.61e+02  -6.0 1.86e+02    -  2.39e-02 1.80e-03h  1
  57 -7.4095183e-02 1.09e+01 8.57e+01  -6.0 1.48e+02    -  1.09e-02 3.68e-02h  1
  58 -7.3998509e-02 1.03e+01 5.91e+02  -6.0 1.21e+02    -  8.67e-02 4.98e-02h  1
  59 -7.3784213e-02 9.34e+00 3.23e+06  -6.0 1.96e+02    -  1.22e-01 9.48e-02h  1
iter    objective    inf_pr   inf_du lg(mu)  ||d||  lg(rg) alpha_du alpha_pr  ls
  60 -7.3471897e-02 7.58e+00 1.56e+07  -6.0 1.36e+02    -  3.96e-01 1.88e-01h  1
  61 -7.3165331e-02 4.95e+00 1.33e+07  -6.0 9.12e+01    -  5.49e-01 3.47e-01h  1
  62r-7.3165331e-02 4.95e+00 1.00e+03   0.5 0.00e+00    -  0.00e+00 3.34e-07R  5
  63r-7.3125815e-02 4.94e+00 1.00e+03   0.5 1.78e+04    -  1.79e-06 7.37e-07f  1
  64 -7.3125926e-02 4.94e+00 3.22e+01  -6.0 4.05e+01    -  7.29e-06 2.34e-04h  1
  65 -7.3125996e-02 4.94e+00 1.56e+02  -6.0 3.23e+01    -  3.71e-02 6.03e-04h  1
  66 -7.3133815e-02 4.80e+00 1.96e+03  -6.0 3.70e+01    -  1.13e-03 2.78e-02h  1
  67r-7.3133815e-02 4.80e+00 9.99e+02   0.5 0.00e+00    -  0.00e+00 3.15e-07R  4
  68r-7.3125325e-02 4.80e+00 6.05e+03   0.5 1.65e+04    -  8.57e-07 1.57e-07f  1
  69 -7.3125366e-02 4.80e+00 4.26e+06  -6.0 2.93e+01    -  2.07e-01 2.87e-04h  1
iter    objective    inf_pr   inf_du lg(mu)  ||d||  lg(rg) alpha_du alpha_pr  ls
  70 -7.3125243e-02 4.75e+00 1.60e+08  -6.0 3.03e+01    -  2.89e-04 1.09e-02h  1
  71 -7.3104170e-02 4.73e+00 1.60e+08  -6.0 1.75e+02    -  6.44e-03 4.36e-03h  1
  72 -7.3110314e-02 4.16e+00 1.41e+08  -6.0 2.92e+01    -  1.19e-01 1.19e-01h  1
  73 -7.3081911e-02 3.70e+00 1.25e+08  -6.0 3.15e+01    -  3.34e-02 1.12e-01h  1
  74 -7.1641057e-02 1.85e+00 6.25e+07  -6.0 2.12e+01    -  2.07e-01 5.00e-01h  1
  75 -7.1190911e-02 1.07e+00 3.61e+07  -6.0 1.33e+01    -  5.12e-01 4.22e-01h  1
  76 -7.1254560e-02 4.03e-01 1.36e+07  -6.0 9.64e+00    -  3.85e-02 6.23e-01h  1
  77 -7.1369704e-02 1.71e-01 5.78e+06  -6.0 3.99e+00    -  8.07e-01 5.75e-01h  1
  78 -7.1543376e-02 5.08e-02 1.72e+06  -6.0 1.90e+00    -  9.63e-01 7.03e-01h  1
  79 -7.3050805e-02 5.17e-02 4.42e+01  -6.0 2.06e+01    -  8.83e-01 1.00e+00H  1
iter    objective    inf_pr   inf_du lg(mu)  ||d||  lg(rg) alpha_du alpha_pr  ls
  80 -7.4425768e-02 4.70e-02 4.36e+01  -6.0 8.72e+02    -  3.99e-02 1.25e-02h  1
  81 -7.4987915e-02 4.97e-02 4.29e+01  -6.0 2.60e+02    -  9.21e-02 1.60e-02h  1
  82 -7.7891990e-02 1.73e-01 3.98e+01  -6.0 5.69e+02    -  7.12e-02 7.24e-02h  2
  83 -7.8579711e-02 2.56e-01 3.75e+01  -6.0 1.48e+02    -  2.65e-01 5.69e-02h  2
  84 -7.8919472e-02 2.69e-01 3.65e+01  -6.0 2.18e+02    -  1.33e-01 2.55e-02h  5
  85 -8.1121834e-02 9.39e-01 3.46e+01  -6.0 2.50e+02    -  2.24e-01 1.37e-01h  2
  86 -8.4510953e-02 2.68e+00 3.55e+01  -6.0 3.02e+02    -  2.51e-01 2.61e-01h  1
  87 -8.5798129e-02 2.52e+00 1.30e+02  -6.0 3.70e+02    -  5.37e-01 1.76e-01h  2
  88 -8.8546463e-02 2.04e+00 1.04e+02  -6.0 5.99e+02    -  1.84e-01 2.44e-01H  1
  89 -9.2558122e-02 1.10e+00 1.07e+02  -6.0 7.06e+02    -  3.06e-01 5.13e-01H  1
iter    objective    inf_pr   inf_du lg(mu)  ||d||  lg(rg) alpha_du alpha_pr  ls
  90 -9.2517352e-02 9.78e-01 9.57e+01  -6.0 2.37e+01  -5.1 5.94e-02 1.08e-01h  1
  91 -9.2191836e-02 4.56e-01 4.54e+01  -6.0 1.12e+01  -5.6 1.47e-01 5.34e-01h  1
  92 -9.2225533e-02 3.43e-01 3.15e+01  -6.0 1.11e+01  -6.1 4.20e-01 2.99e-01h  1
  93 -9.2531297e-02 4.33e-01 2.67e+01  -6.0 2.68e+01  -6.5 1.57e-03 3.23e-01h  1
  94 -9.2851071e-02 4.12e-01 5.17e+01  -6.0 5.75e+01  -7.0 7.23e-01 1.53e-01h  1
  95 -9.3622162e-02 9.99e-01 1.62e+01  -6.0 1.23e+02  -7.5 9.75e-01 4.90e-01h  1
  96 -9.5181038e-02 1.23e+00 1.70e+02  -6.0 3.34e+02  -8.0 9.12e-01 4.19e-01h  1
  97 -9.6612792e-02 1.27e+00 7.26e+02  -6.0 7.48e+02  -8.4 5.59e-01 1.65e-01h  1
  98 -9.8023490e-02 1.20e+00 7.47e+02  -6.0 1.81e+03  -8.9 1.60e-01 8.03e-02h  1
  99 -9.9318595e-02 1.08e+00 5.17e+03  -6.0 6.51e+02  -8.5 9.63e-01 2.00e-01h  1
iter    objective    inf_pr   inf_du lg(mu)  ||d||  lg(rg) alpha_du alpha_pr  ls
 100 -1.0039837e-01 1.03e+00 6.89e+03  -6.0 1.20e+03  -9.0 6.05e-01 1.24e-01h  1
 101 -1.0253739e-01 9.18e-01 4.51e+03  -6.0 3.77e+02  -8.5 6.45e-01 4.72e-01h  1
 102 -1.0381044e-01 8.64e-01 1.56e+04  -6.0 1.01e+03  -9.0 5.92e-01 1.41e-01h  1
 103 -1.0668026e-01 3.17e+00 2.71e+03  -6.0 8.93e+02  -8.6 1.47e-01 4.36e-01h  1
 104 -1.0897181e-01 3.47e+00 3.01e+06  -6.0 1.24e+03  -9.1 2.83e-03 2.69e-01h  1
 105 -1.1033415e-01 7.34e+00 2.04e+06  -6.0 1.66e+03  -8.7 3.83e-02 3.21e-01h  1
 106 -1.1151226e-01 9.41e+00 1.42e+06  -6.0 1.64e+03  -9.1 8.36e-02 3.05e-01h  1
 107 -1.1281331e-01 1.81e+01 1.40e+06  -6.0 6.17e+04  -9.6 1.09e-02 1.52e-02h  1
 108 -1.1302917e-01 1.65e+01 1.26e+06  -6.0 1.43e+03  -9.2 2.78e-01 9.54e-02h  1
 109 -1.1556539e-01 1.55e+01 8.62e+05  -6.0 1.52e+03  -9.7 1.02e-01 3.18e-01h  1
iter    objective    inf_pr   inf_du lg(mu)  ||d||  lg(rg) alpha_du alpha_pr  ls
 110 -1.1573369e-01 1.53e+01 8.39e+05  -6.0 6.03e+03 -10.1 2.37e-02 2.64e-02h  1
 111 -1.1597000e-01 1.48e+01 8.07e+05  -6.0 2.18e+03  -9.7 2.78e-01 3.85e-02h  1
 112 -1.1785212e-01 1.97e+01 7.30e+05  -6.0 2.25e+04 -10.2 6.65e-03 9.54e-02h  1
 113 -1.1797892e-01 1.87e+01 6.94e+05  -6.0 1.20e+03  -8.0 2.44e-02 4.93e-02h  1
 114 -1.1803739e-01 1.77e+01 6.56e+05  -6.0 3.18e+02  -8.4 2.49e-01 5.44e-02h  1
 115 -1.1781822e-01 1.21e+00 3.19e+03  -6.0 2.60e+02  -8.0 8.46e-02 1.00e+00h  1
 116 -1.1845566e-01 8.88e-01 3.75e+03  -6.0 2.15e+02  -8.5 2.62e-01 2.96e-01h  1
 117 -1.1978673e-01 2.10e+00 3.08e+04  -6.0 3.99e+02  -9.0 1.48e-01 4.25e-01h  1
 118 -1.2216238e-01 1.64e+01 1.23e+07  -6.0 2.00e+03  -9.4 1.32e-03 4.24e-01h  1
 119 -1.2229567e-01 1.38e+01 9.75e+06  -6.0 4.04e+03  -9.9 3.50e-01 2.10e-01h  1
iter    objective    inf_pr   inf_du lg(mu)  ||d||  lg(rg) alpha_du alpha_pr  ls
 120 -1.2236251e-01 1.35e+01 9.57e+06  -6.0 1.58e+03  -9.5 7.69e-02 1.79e-02h  1
 121 -1.2318319e-01 5.79e+00 3.54e+06  -6.0 3.80e+02  -9.1 4.56e-01 6.30e-01h  1
 122 -1.2359964e-01 7.15e+00 3.21e+06  -6.0 8.78e+03  -9.5 1.05e-01 9.43e-02h  1
 123 -1.2372460e-01 7.35e+00 2.96e+06  -6.0 1.16e+03  -9.1 9.26e-01 7.63e-02h  1
 124 -1.2433664e-01 3.72e+00 1.49e+06  -6.0 5.90e+02  -9.6 3.54e-01 4.98e-01h  1
 125 -1.2489975e-01 1.29e+00 3.25e+05  -6.0 4.45e+02  -9.2 1.00e+00 7.81e-01h  1
 126 -1.2568164e-01 1.21e+00 1.36e+05  -6.0 1.78e+02  -8.7 2.94e-01 5.81e-01h  1
 127 -1.2582640e-01 1.13e+00 1.31e+05  -6.0 4.03e+03  -9.2 3.22e-02 3.91e-02h  1
Error in an AMPL evaluation. Run with "halt_on_ampl_error yes" to see details.
Warning: Cutting back alpha due to evaluation error
 128 -1.2593090e-01 1.10e+00 1.28e+05  -6.0 1.91e+03  -9.7 3.78e-03 2.07e-02h  2
 129 -1.2595604e-01 1.02e+00 1.18e+05  -6.0 1.40e+01  -5.7 1.97e-01 8.03e-02h  1
iter    objective    inf_pr   inf_du lg(mu)  ||d||  lg(rg) alpha_du alpha_pr  ls
 130 -1.2599581e-01 8.99e-01 1.04e+05  -6.0 2.24e+01  -6.1 1.99e-01 1.15e-01h  1
 131 -1.2608625e-01 6.67e-01 7.72e+04  -6.0 2.33e+01  -6.6 2.52e-01 2.58e-01h  1
 132 -1.2611446e-01 6.30e-01 7.30e+04  -6.0 3.16e+01  -7.1 1.71e-01 5.48e-02h  1
 133 -1.2626263e-01 4.96e-01 5.78e+04  -6.0 4.49e+01  -7.6 1.09e-01 2.09e-01h  1
 134 -1.2641277e-01 3.60e-01 4.21e+04  -6.0 4.72e+01  -7.1 5.27e-01 2.72e-01h  1
 135 -1.2678685e-01 2.65e+00 3.53e+04  -6.0 4.33e+02  -7.6 4.17e-02 1.61e-01h  1
 136 -1.2690016e-01 2.37e+00 2.53e+04  -6.0 9.26e+01  -8.1 2.24e-03 2.83e-01f  1
 137 -1.2675565e-01 2.26e+00 2.18e+04  -6.0 6.23e+01  -5.9 1.17e-02 1.40e-01h  1
 138 -1.2675643e-01 2.26e+00 2.17e+04  -6.0 7.31e+00  -5.4 3.17e-02 1.52e-03h  1
 139 -1.2689801e-01 2.37e+00 2.12e+04  -6.0 5.23e+02  -5.9 1.65e-03 2.36e-02f  1
iter    objective    inf_pr   inf_du lg(mu)  ||d||  lg(rg) alpha_du alpha_pr  ls
 140 -1.2689826e-01 2.37e+00 2.12e+04  -6.0 7.38e+00  -5.5 5.96e-02 9.56e-04h  1
 141 -1.2696463e-01 7.89e-01 6.14e+03  -6.0 3.33e+00  -5.1 2.58e-02 7.10e-01f  1
 142 -1.2699800e-01 6.00e-01 4.63e+03  -6.0 2.53e+00  -5.5 8.69e-01 2.45e-01h  1
 143 -1.2708477e-01 2.00e-01 1.44e+03  -6.0 5.80e+00  -6.0 1.00e+00 6.90e-01h  1
 144 -1.2720177e-01 3.63e-02 2.51e+02  -6.0 1.22e+01  -6.5 1.00e+00 8.26e-01h  1
 145 -1.2730953e-01 5.99e-02 1.10e+02  -6.0 2.56e+01  -7.0 1.00e+00 5.62e-01f  1
 146 -1.2766649e-01 8.71e-01 2.72e+01  -6.0 4.49e+01  -7.4 1.00e+00 1.00e+00f  1
 147 -1.2781679e-01 1.47e+00 4.97e+01  -6.0 1.43e+02  -7.9 9.14e-02 6.88e-02h  1
 148 -1.2814344e-01 8.03e-01 2.69e+01  -6.0 1.97e+02  -8.4 5.47e-01 4.56e-01h  1
 149 -1.2836566e-01 8.41e-01 3.21e+01  -6.0 4.59e+02  -8.9 2.68e-01 1.19e-01h  1
iter    objective    inf_pr   inf_du lg(mu)  ||d||  lg(rg) alpha_du alpha_pr  ls
 150 -1.2874456e-01 1.17e+00 4.50e+01  -6.0 1.26e+03  -9.4 1.93e-01 1.76e-01h  1
 151 -1.2927323e-01 1.04e+00 1.01e+02  -6.0 1.92e+03  -9.8 4.44e-01 1.57e-01h  1
 152 -1.3084978e-01 1.03e+01 5.77e+01  -6.0 6.28e+03 -10.3 1.27e-01 2.16e-01h  1
 153 -1.3127857e-01 9.23e+00 5.12e+01  -6.0 3.14e+03  -9.9 8.84e-02 1.15e-01h  1
 154 -1.3147012e-01 9.10e+00 5.00e+01  -6.0 1.22e+04 -10.4 1.02e-02 2.03e-02h  1
 155 -1.3253298e-01 1.82e+01 6.74e+01  -6.0 1.60e+04    -  1.49e-02 1.16e-01h  1
 156 -1.3257664e-01 1.82e+01 6.95e+01  -6.0 1.75e+04    -  2.65e-04 2.30e-03h  1
 157 -1.3352321e-01 2.60e+01 1.29e+02  -6.0 1.80e+03  -8.1 2.31e-03 4.72e-02h  1
 158 -1.3359518e-01 2.73e+01 1.08e+02  -6.0 1.46e+03  -7.7 1.17e-02 2.86e-03h  1
 159 -1.3399278e-01 1.25e+01 1.40e+02  -6.0 1.76e+02  -8.2 1.54e-01 5.40e-01h  1
iter    objective    inf_pr   inf_du lg(mu)  ||d||  lg(rg) alpha_du alpha_pr  ls
 160 -1.3405570e-01 1.11e+01 1.40e+02  -6.0 1.84e+02  -8.7 1.01e-01 1.14e-01h  1
 161 -1.3432389e-01 8.92e+00 2.57e+02  -6.0 2.71e+02  -9.1 2.01e-01 2.97e-01h  1
 162 -1.3514745e-01 3.70e+00 1.19e+03  -6.0 5.43e+02  -9.6 2.97e-01 7.67e-01h  1
 163 -1.3519444e-01 3.67e+00 1.24e+03  -6.0 3.29e+04    -  1.81e-04 6.54e-03h  1
 164 -1.3520644e-01 3.62e+00 8.87e+02  -6.0 3.30e+02  -9.2 3.82e-01 1.38e-02h  1
 165 -1.3576893e-01 1.88e+01 1.24e+02  -6.0 3.47e+03    -  1.26e-01 3.05e-01h  1
 166 -1.3599099e-01 8.74e+00 2.24e+03  -6.0 2.04e+02  -9.7 2.32e-01 5.42e-01h  1
 167 -1.3600451e-01 8.64e+00 1.93e+03  -6.0 6.84e+02 -10.1 3.08e-02 1.19e-02h  1
 168 -1.3617128e-01 6.60e+00 5.37e+03  -6.0 8.89e+02 -10.6 7.33e-01 3.02e-01h  1
 169 -1.3649546e-01 1.61e+01 8.33e+03  -6.0 1.89e+03    -  1.44e-01 7.17e-01h  1
iter    objective    inf_pr   inf_du lg(mu)  ||d||  lg(rg) alpha_du alpha_pr  ls
 170 -1.3659599e-01 1.35e+01 7.40e+03  -6.0 3.68e+02  -9.3 1.58e-01 1.63e-01h  1
 171 -1.3685107e-01 6.89e+00 1.54e+07  -6.0 2.37e+02  -9.8 1.04e-03 4.88e-01h  1
 172 -1.3684890e-01 4.48e+00 9.60e+06  -6.0 8.68e+02    -  3.23e-01 3.76e-01h  1
 173 -1.3696011e-01 5.53e+00 1.16e+03  -6.0 5.84e+02 -10.2 4.21e-01 1.00e+00h  1
 174 -1.3697604e-01 5.06e+00 1.18e+03  -6.0 3.18e+03 -10.7 4.63e-01 8.74e-02h  1
 175 -1.3702635e-01 3.03e+00 7.72e+02  -6.0 3.97e+02    -  2.75e-01 4.13e-01h  1
 176 -1.3701363e-01 2.66e+00 7.42e+02  -6.0 2.45e+03    -  1.00e+00 1.29e-01h  1
 177 -1.3700886e-01 2.52e+00 7.02e+02  -6.0 1.43e+03    -  5.74e-02 5.36e-02h  1
 178 -1.3693439e-01 8.00e-01 5.90e+01  -6.0 1.64e+02    -  1.11e-01 1.00e+00h  1
 179 -1.3695363e-01 8.72e-01 1.97e+01  -6.0 1.73e+02  -8.5 5.52e-01 1.00e+00h  1
iter    objective    inf_pr   inf_du lg(mu)  ||d||  lg(rg) alpha_du alpha_pr  ls
 180 -1.3694690e-01 8.70e-01 1.59e+01  -6.0 7.61e+02    -  1.94e-01 5.02e-02h  1
 181 -1.3689466e-01 9.33e-02 9.04e-01  -6.0 5.77e+01    -  1.00e+00 1.00e+00f  1
 182 -1.3689328e-01 1.23e+00 7.75e+00  -6.0 3.51e+02  -9.0 4.69e-01 5.79e-01h  1
 183 -1.3687890e-01 1.04e+00 1.51e+02  -6.0 2.31e+02    -  1.00e+00 6.20e-01h  1
 184 -1.3714057e-01 5.42e-01 3.35e+02  -6.0 1.44e+02    -  4.90e-01 7.63e-01h  1
 185 -1.3708285e-01 2.45e-01 1.86e+02  -6.0 1.18e+01  -6.7 9.07e-01 5.48e-01h  1
 186 -1.3702484e-01 2.52e-02 4.89e+01  -6.0 1.46e+01  -7.2 6.42e-01 1.00e+00h  1
 187 -1.3698357e-01 1.21e-02 2.25e-01  -6.0 1.48e+01  -7.7 1.00e+00 1.00e+00h  1
 188 -1.3694916e-01 9.72e-02 9.75e-01  -6.0 5.92e+01  -8.2 1.00e+00 1.00e+00h  1
 189 -1.3695792e-01 1.13e+00 8.81e+00  -6.0 2.02e+02  -8.6 1.00e+00 1.00e+00h  1
iter    objective    inf_pr   inf_du lg(mu)  ||d||  lg(rg) alpha_du alpha_pr  ls
 190 -1.3696645e-01 1.21e+00 5.61e+01  -6.0 1.36e+04    -  1.31e-02 3.90e-03h  1
 191 -1.3694907e-01 8.39e-01 4.61e+01  -6.0 1.77e+02    -  1.00e+00 1.00e+00h  1
 192 -1.3695996e-01 1.32e+00 1.26e+02  -6.0 1.44e+03    -  9.91e-02 1.02e-01h  1
 193 -1.3693456e-01 7.09e-03 2.41e+04  -6.0 2.17e+01    -  2.98e-01 1.00e+00h  1
 194 -1.3690987e-01 7.64e-01 9.16e+03  -6.0 2.63e+02    -  1.00e+00 6.20e-01h  1
 195 -1.3679909e-01 8.51e-01 6.20e+01  -6.0 1.68e+02    -  1.00e+00 1.00e+00h  1
 196 -1.3673898e-01 1.84e-01 3.05e+00  -6.0 7.89e+01    -  2.29e-01 1.00e+00h  1
 197 -1.3680759e-01 3.13e-01 1.54e+00  -6.0 1.02e+02    -  1.00e+00 1.00e+00h  1
 198 -1.3682404e-01 3.85e-02 8.98e-02  -6.0 2.50e+01    -  1.00e+00 1.00e+00h  1
 199 -1.3682333e-01 2.63e-05 5.32e-05  -6.0 5.49e-01    -  1.00e+00 1.00e+00h  1
iter    objective    inf_pr   inf_du lg(mu)  ||d||  lg(rg) alpha_du alpha_pr  ls
 200 -1.3682318e-01 2.12e-06 5.55e-06  -6.0 1.86e-01    -  1.00e+00 1.00e+00h  1
 201 -1.3734341e-01 4.05e+00 1.96e+01  -7.5 4.22e+03    -  1.24e-01 1.75e-01h  1
 202 -1.3783213e-01 8.81e+00 2.33e+01  -7.5 3.84e+03    -  3.38e-01 2.35e-01h  1
 203 -1.3792516e-01 8.62e+00 5.23e+01  -7.5 3.44e+03    -  2.99e-01 6.71e-02h  1
 204 -1.3792759e-01 8.60e+00 9.52e+01  -7.5 3.47e+02  -9.1 3.70e-01 2.80e-03h  1
 205 -1.3803950e-01 7.84e+00 8.49e+01  -7.5 1.32e+02  -7.8 6.19e-02 8.75e-02h  1
 206 -1.3807575e-01 7.36e+00 7.99e+01  -7.5 1.22e+02  -8.3 6.39e-02 6.14e-02h  1
 207 -1.3814103e-01 3.67e+00 5.00e+01  -7.5 2.85e+01  -7.8 4.18e-01 5.01e-01h  1
 208 -1.3816815e-01 2.95e+00 4.17e+01  -7.5 6.06e+01  -8.3 5.64e-01 1.98e-01h  1
 209 -1.3824307e-01 2.02e+00 3.10e+01  -7.5 1.28e+02  -8.8 3.59e-01 3.17e-01h  1
iter    objective    inf_pr   inf_du lg(mu)  ||d||  lg(rg) alpha_du alpha_pr  ls
 210 -1.3829162e-01 1.18e+00 2.37e+01  -7.5 1.04e+02  -8.4 1.00e+00 4.16e-01h  1
 211 -1.3839678e-01 7.83e+00 2.07e+01  -7.5 5.34e+03    -  1.44e-01 1.31e-01h  1
 212 -1.3848824e-01 1.16e+01 1.81e+01  -7.5 4.14e+03    -  4.95e-02 1.35e-01h  1
 213 -1.3858996e-01 1.23e+01 1.46e+01  -7.5 2.74e+03    -  4.30e-01 1.47e-01h  1
 214 -1.3864136e-01 2.46e+01 1.34e+01  -7.5 1.03e+04    -  2.57e-01 9.31e-02h  1
 215 -1.3879233e-01 5.16e+01 2.18e+01  -7.5 4.77e+03    -  2.48e-03 3.31e-01h  1
 216 -1.3877712e-01 1.73e+00 1.17e+01  -7.5 2.96e+01  -8.8 1.69e-01 9.67e-01h  1
 217 -1.3882823e-01 2.06e+01 8.32e+00  -7.5 7.89e+03    -  3.39e-02 1.42e-01h  1
 218 -1.3882559e-01 2.43e+01 8.31e+00  -7.5 7.98e+05    -  1.53e-03 6.39e-04h  3
 219 -1.3886442e-01 2.13e+01 5.29e+00  -7.5 3.68e+03    -  5.17e-01 1.24e-01h  1
iter    objective    inf_pr   inf_du lg(mu)  ||d||  lg(rg) alpha_du alpha_pr  ls
 220 -1.3899500e-01 4.62e+01 3.81e+01  -7.5 3.81e+03    -  4.82e-01 4.68e-01h  1
 221 -1.3900984e-01 4.07e+01 3.88e+01  -7.5 1.99e+03    -  2.11e-02 1.48e-01h  1
 222 -1.3900194e-01 2.81e+01 2.91e+01  -7.5 1.33e+03  -9.3 2.76e-02 3.10e-01h  1
 223 -1.3903074e-01 3.36e+01 3.89e+01  -7.5 1.14e+05    -  3.03e-03 5.42e-03h  1
 224 -1.3908500e-01 5.07e+01 1.15e+02  -7.5 4.70e+03    -  1.96e-01 2.78e-01h  1
 225 -1.3909642e-01 1.47e+01 1.09e+03  -7.5 7.10e+02    -  9.65e-02 7.23e-01h  1
 226 -1.3909760e-01 6.12e+00 3.64e+02  -7.5 1.81e+02  -9.8 6.36e-01 5.98e-01h  1
 227 -1.3910837e-01 6.89e+00 3.54e+02  -7.5 1.08e+04    -  1.91e-01 2.20e-02h  1
 228 -1.3918464e-01 5.38e+01 2.60e+02  -7.5 7.25e+03    -  2.94e-01 2.39e-01h  1
 229 -1.3918493e-01 5.37e+01 2.60e+02  -7.5 4.69e+03    -  1.20e-01 2.02e-03h  1
iter    objective    inf_pr   inf_du lg(mu)  ||d||  lg(rg) alpha_du alpha_pr  ls
 230 -1.3921788e-01 3.98e+01 2.06e+02  -7.5 1.66e+03    -  1.50e-02 4.70e-01h  1
 231 -1.3922570e-01 3.36e+01 4.22e+02  -7.5 6.19e+02 -10.3 9.37e-03 1.62e-01h  1
 232 -1.3927321e-01 3.08e+01 1.96e+02  -7.5 1.61e+03 -10.7 1.49e-01 5.77e-01h  1
 233 -1.3930112e-01 2.58e+01 3.95e+02  -7.5 1.51e+03 -11.2 5.07e-02 2.80e-01h  1
 234 -1.3930619e-01 1.96e+01 5.29e+02  -7.5 9.87e+02 -11.7 1.29e-01 3.11e-01h  1
 235 -1.3933251e-01 1.84e+01 4.29e+02  -7.5 3.84e+03 -12.2 1.89e-01 1.89e-01h  1
 236 -1.3934232e-01 1.54e+01 4.49e+02  -7.5 6.23e+01  -9.0 1.33e-01 1.63e-01h  1
 237 -1.3936629e-01 9.54e+00 5.34e+02  -7.5 2.42e+02  -9.5 3.15e-01 3.80e-01h  1
 238 -1.3941549e-01 3.92e+00 1.31e+03  -7.5 1.38e+02 -10.0 4.68e-01 6.00e-01h  1
 239 -1.3942060e-01 3.57e+00 7.62e+06  -7.5 6.77e+02  -8.7 7.37e-05 8.91e-02h  1
iter    objective    inf_pr   inf_du lg(mu)  ||d||  lg(rg) alpha_du alpha_pr  ls
 240 -1.3945361e-01 2.29e+00 4.88e+06  -7.5 2.62e+01  -8.2 8.79e-02 3.59e-01h  1
 241 -1.3946551e-01 6.75e-02 1.21e+03  -7.5 3.39e+01  -8.7 8.26e-01 1.00e+00h  1
 242 -1.3947536e-01 6.04e-02 1.08e+03  -7.5 6.62e+01  -9.2 2.59e-01 1.05e-01h  1
 243 -1.3948056e-01 5.40e-02 9.67e+02  -7.5 1.57e+02  -9.7 9.74e-01 1.05e-01h  1
 244 -1.3949785e-01 3.76e-01 5.65e+02  -7.5 3.86e+02 -10.2 3.64e-01 4.13e-01h  1
 245 -1.3950521e-01 1.99e+00 3.99e+02  -7.5 1.17e+03 -10.6 4.97e-01 2.95e-01h  1
 246 -1.3955925e-01 4.23e+01 2.14e+02  -7.5 1.53e+03 -11.1 1.00e+00 9.50e-01h  1
 247 -1.3958755e-01 1.93e+01 4.63e+01  -7.5 1.76e+03 -10.7 8.36e-02 5.49e-01h  1
 248 -1.3963164e-01 2.28e+01 9.12e+01  -7.5 1.80e+03 -11.2 4.69e-01 6.00e-01h  1
 249 -1.3963970e-01 1.53e+01 5.74e+01  -7.5 5.66e+02 -10.7 3.33e-01 3.45e-01h  1
iter    objective    inf_pr   inf_du lg(mu)  ||d||  lg(rg) alpha_du alpha_pr  ls
 250 -1.3968399e-01 4.88e+01 3.55e+02  -7.5 3.29e+03 -11.2 1.96e-02 4.60e-01h  1
 251 -1.3968143e-01 4.43e+01 2.52e+02  -7.5 4.64e+03 -11.7 5.30e-04 1.71e-01h  1
 252 -1.3972367e-01 7.35e+01 9.91e+01  -7.5 2.87e+04 -11.3 2.84e-02 1.00e+00H  1
 253 -1.3975539e-01 2.06e+01 4.07e+01  -7.5 4.02e+02  -9.9 9.52e-01 7.16e-01h  1
 254 -1.3973855e-01 3.34e+00 3.77e+01  -7.5 4.07e+02 -10.4 4.14e-01 1.00e+00h  1
 255 -1.3975831e-01 3.04e+00 1.29e+01  -7.5 5.58e+02 -10.9 1.00e+00 6.51e-01h  1
 256 -1.3976010e-01 5.58e+00 4.42e+00  -7.5 7.41e+02 -11.4 1.00e+00 6.76e-01h  1
 257 -1.3976093e-01 1.63e+00 1.50e-01  -7.5 2.82e+02 -10.9 1.00e+00 1.00e+00h  1
 258 -1.3976334e-01 2.33e+01 4.79e-02  -7.5 1.06e+03 -11.4 1.00e+00 9.90e-01h  1
 259 -1.3976350e-01 1.14e+01 4.89e-01  -7.5 4.66e+02    -  1.00e+00 5.64e-01h  1
iter    objective    inf_pr   inf_du lg(mu)  ||d||  lg(rg) alpha_du alpha_pr  ls
 260 -1.3976283e-01 4.60e-02 7.04e-04  -7.5 4.44e+01    -  1.00e+00 1.00e+00h  1
 261 -1.3976284e-01 1.95e-03 6.68e-05  -7.5 8.97e+00    -  1.00e+00 1.00e+00h  1
 262 -1.3976284e-01 1.86e-06 2.07e-09  -7.5 2.77e-01    -  1.00e+00 1.00e+00h  1
 263 -1.3976284e-01 3.05e-10 2.56e-12  -7.5 2.51e-04    -  1.00e+00 1.00e+00h  1
 264 -1.3976652e-01 2.60e-01 4.13e+00  -9.0 2.83e+02    -  7.46e-01 4.11e-01h  1
 265 -1.3976682e-01 2.44e-01 6.35e+00  -9.0 2.17e+02    -  9.28e-01 9.39e-02h  1
 266 -1.3976812e-01 5.11e-01 3.59e+00  -9.0 1.73e+02 -11.9 1.00e+00 9.23e-01h  1
 267 -1.3976794e-01 2.05e-01 1.85e-01  -9.0 1.33e+02    -  4.62e-01 1.00e+00h  1
 268 -1.3976794e-01 6.00e-02 6.02e-06  -9.0 7.17e+01 -12.4 1.00e+00 1.00e+00h  1
 269 -1.3976796e-01 2.33e-02 4.17e-03  -9.0 3.62e+02 -12.8 6.40e-01 1.00e+00H  1
iter    objective    inf_pr   inf_du lg(mu)  ||d||  lg(rg) alpha_du alpha_pr  ls
 270 -1.3976797e-01 4.26e-01 2.34e-05  -9.0 1.90e+02 -12.4 1.00e+00 1.00e+00h  1
 271 -1.3976798e-01 6.27e-01 4.72e-06  -9.0 8.42e+01 -12.0 1.00e+00 1.00e+00h  1
 272 -1.3976799e-01 2.18e-01 6.12e-04  -9.0 1.98e+04    -  2.99e-03 5.35e-03h  5
 273 -1.3976804e-01 8.68e-02 4.63e-03  -9.0 3.78e+02 -12.5 1.73e-01 1.00e+00H  1
 274 -1.3976810e-01 8.06e-02 1.15e-04  -9.0 4.12e+02 -12.0 1.00e+00 1.00e+00H  1
 275 -1.3976823e-01 6.22e+00 3.26e-04  -9.0 7.14e+02 -12.5 1.00e+00 1.00e+00h  1
 276 -1.3976887e-01 9.40e+01 5.16e-03  -9.0 3.65e+04 -13.0 6.32e-02 7.31e-02h  1
 277 -1.3976863e-01 1.92e+01 1.05e-03  -9.0 1.27e+03    -  1.00e+00 1.00e+00h  1
 278 -1.3976945e-01 5.21e+01 2.73e-03  -9.0 1.98e+03 -12.6 9.59e-01 1.00e+00h  1
 279 -1.3977009e-01 6.89e+01 4.72e-02  -9.0 6.18e+04    -  2.18e-02 1.81e-02h  1
iter    objective    inf_pr   inf_du lg(mu)  ||d||  lg(rg) alpha_du alpha_pr  ls
 280 -1.3977159e-01 6.57e+01 1.05e+00  -9.0 2.05e+03    -  9.97e-02 1.00e+00h  1
 281 -1.3977183e-01 5.72e+01 1.41e-01  -9.0 1.85e+03    -  3.41e-01 1.49e-01h  1
 282 -1.3977343e-01 5.60e+01 7.95e-03  -9.0 1.80e+03    -  1.00e+00 1.00e+00h  1
 283 -1.3977404e-01 4.20e+01 9.32e-02  -9.0 1.65e+03    -  3.93e-01 4.02e-01h  1
 284 -1.3977524e-01 3.94e+01 7.39e+00  -9.0 1.64e+03    -  3.15e-01 7.37e-01h  1
 285 -1.3977702e-01 4.55e+01 1.16e+03  -9.0 1.49e+03    -  1.26e-02 1.00e+00h  1
 286 -1.3977724e-01 4.52e+01 1.14e+03  -9.0 8.28e+03 -12.1 1.24e-01 1.80e-02h  1
 287 -1.3977956e-01 3.91e+01 8.60e+01  -9.0 1.30e+03    -  1.77e-01 1.00e+00h  1
 288 -1.3978022e-01 3.63e+01 7.33e+01  -9.0 2.33e+03 -11.7 3.81e-01 1.26e-01h  1
 289 -1.3977954e-01 2.22e+00 1.43e+02  -9.0 3.39e+02    -  6.23e-02 1.00e+00h  1
iter    objective    inf_pr   inf_du lg(mu)  ||d||  lg(rg) alpha_du alpha_pr  ls
 290 -1.3978019e-01 3.40e+00 7.13e+01  -9.0 6.54e+02    -  1.00e+00 4.68e-01h  1
 291 -1.3978028e-01 7.19e-05 1.59e-01  -9.0 5.13e+00    -  9.72e-01 1.00e+00h  1
 292 -1.3978029e-01 4.11e-05 7.11e-09  -9.0 1.31e+00    -  1.00e+00 1.00e+00h  1
 293 -1.3978029e-01 1.71e-08 2.07e-11  -9.0 2.67e-02    -  1.00e+00 1.00e+00h  1

Number of Iterations....: 293

                                   (scaled)                 (unscaled)
Objective...............:  -1.3978028745150997e-01   -1.3978028745150997e-01
Dual infeasibility......:   2.0700929054821192e-11    2.0700929054821192e-11
Constraint violation....:   9.1303405604854505e-09    1.7131242202594876e-08
Complementarity.........:   9.0909091835938887e-10    9.0909091835938887e-10
Overall NLP error.......:   9.1303405604854505e-09    1.7131242202594876e-08


Number of objective function evaluations             = 402
Number of objective gradient evaluations             = 291
Number of equality constraint evaluations            = 403
Number of inequality constraint evaluations          = 403
Number of equality constraint Jacobian evaluations   = 304
Number of inequality constraint Jacobian evaluations = 304
Number of Lagrangian Hessian evaluations             = 293
Total CPU secs in IPOPT (w/o function evaluations)   =    130.687
Total CPU secs in NLP function evaluations           =      4.765

EXIT: Optimal Solution Found.
